;test regex String formNumberRegex = "(al|sf|sa|sc|nrc|nrc form|doe|doe f|lsi|doe form psd f|doe al f)?[\\s\\-\\.]*[\\d]{3,6}[\\s\\-\\.]*[\\w]{1,4}";
(declare-const X String)
(assert (str.in_re X (re.++ (str.to_re "S") (re.++ (str.to_re "t") (re.++ (str.to_re "r") (re.++ (str.to_re "i") (re.++ (str.to_re "n") (re.++ (str.to_re "g") (re.++ (str.to_re " ") (re.++ (str.to_re "f") (re.++ (str.to_re "o") (re.++ (str.to_re "r") (re.++ (str.to_re "m") (re.++ (str.to_re "N") (re.++ (str.to_re "u") (re.++ (str.to_re "m") (re.++ (str.to_re "b") (re.++ (str.to_re "e") (re.++ (str.to_re "r") (re.++ (str.to_re "R") (re.++ (str.to_re "e") (re.++ (str.to_re "g") (re.++ (str.to_re "e") (re.++ (str.to_re "x") (re.++ (str.to_re " ") (re.++ (str.to_re "=") (re.++ (str.to_re " ") (re.++ (str.to_re "\u{22}") (re.++ (re.opt (re.union (re.union (re.union (re.union (re.union (re.union (re.union (re.union (re.union (re.union (re.++ (str.to_re "a") (str.to_re "l")) (re.++ (str.to_re "s") (str.to_re "f"))) (re.++ (str.to_re "s") (str.to_re "a"))) (re.++ (str.to_re "s") (str.to_re "c"))) (re.++ (str.to_re "n") (re.++ (str.to_re "r") (str.to_re "c")))) (re.++ (str.to_re "n") (re.++ (str.to_re "r") (re.++ (str.to_re "c") (re.++ (str.to_re " ") (re.++ (str.to_re "f") (re.++ (str.to_re "o") (re.++ (str.to_re "r") (str.to_re "m"))))))))) (re.++ (str.to_re "d") (re.++ (str.to_re "o") (str.to_re "e")))) (re.++ (str.to_re "d") (re.++ (str.to_re "o") (re.++ (str.to_re "e") (re.++ (str.to_re " ") (str.to_re "f")))))) (re.++ (str.to_re "l") (re.++ (str.to_re "s") (str.to_re "i")))) (re.++ (str.to_re "d") (re.++ (str.to_re "o") (re.++ (str.to_re "e") (re.++ (str.to_re " ") (re.++ (str.to_re "f") (re.++ (str.to_re "o") (re.++ (str.to_re "r") (re.++ (str.to_re "m") (re.++ (str.to_re " ") (re.++ (str.to_re "p") (re.++ (str.to_re "s") (re.++ (str.to_re "d") (re.++ (str.to_re " ") (str.to_re "f"))))))))))))))) (re.++ (str.to_re "d") (re.++ (str.to_re "o") (re.++ (str.to_re "e") (re.++ (str.to_re " ") (re.++ (str.to_re "a") (re.++ (str.to_re "l") (re.++ (str.to_re " ") (str.to_re "f")))))))))) (re.++ (re.* (re.union (str.to_re "\\") (re.union (str.to_re "s") (re.union (re.range "\\" "\\") (str.to_re "."))))) (re.++ ((_ re.loop 3 6) (re.union (str.to_re "\\") (str.to_re "d"))) (re.++ (re.* (re.union (str.to_re "\\") (re.union (str.to_re "s") (re.union (re.range "\\" "\\") (str.to_re "."))))) (re.++ ((_ re.loop 1 4) (re.union (str.to_re "\\") (str.to_re "w"))) (re.++ (str.to_re "\u{22}") (str.to_re ";")))))))))))))))))))))))))))))))))))
; sanitize danger characters:  < > ' " &
(assert (not (str.in_re X (re.++ re.all (re.union (str.to_re "\u{3c}") (str.to_re "\u{3e}") (str.to_re "\u{27}") (str.to_re "\u{22}") (str.to_re "\u{26}")) re.all))))
(assert (< 9 (str.len X)))
(check-sat)
(get-model)